; benchmark generated from python API
(set-info :status unknown)
(declare-fun x4 () Real)
(declare-fun x3 () Real)
(declare-fun bool.b7 () Bool)
(declare-fun x5 () Real)
(declare-fun bool.b8 () Bool)
(declare-fun bool.b10 () Bool)
(declare-fun bool.b12 () Bool)
(declare-fun bool.b14 () Bool)
(declare-fun bool.b6 () Bool)
(declare-fun bool.b23 () Bool)
(declare-fun bool.b5 () Bool)
(declare-fun bool.b22 () Bool)
(assert
 (forall ((?lambda Real) )(let ((?x12386 (+ x3 (* (- 1.0) ?lambda))))
 (let ((?x18119 (* 1.0 ?x12386)))
 (let ((?x10228 (+ ?x18119 (* (/ 3.0 20.0) (+ x4 (* 20.0 ?lambda))))))
 (let (($x10060 (<= ?x10228 1200.0)))
 (let (($x5184 (and bool.b7 $x10060)))
 (let (($x1927 (<= ?x10228 723.0)))
 (let (($x15663 (not $x1927)))
 (let ((?x22873 (+ ?x18119 (* 3.0 (+ x5 (* 1.0 ?lambda))))))
 (let (($x550 (<= ?x22873 30.0)))
 (let (($x14186 (not bool.b12)))
 (let (($x22533 (not bool.b14)))
 (let (($x12612 (and $x22533 (and $x14186 (and (not bool.b10) (and bool.b7 (not bool.b8)))))))
 (let (($x1781 (and $x10060 $x12612)))
 (let (($x31425 (and $x15663 $x1781)))
 (let (($x12034 (not $x31425)))
 (let (($x17889 (not $x550)))
 (let (($x7608 (<= ?x22873 50.0)))
 (let (($x38018 (and $x7608 (and (not (and $x17889 $x12034)) (not (and $x550 (not (and $x15663 $x5184))))))))
 (let ((?x6027 (+ ?x18119 (* (/ 3.0 40.0) (+ x4 (* 20.0 ?lambda))))))
 (let (($x21862 (<= ?x6027 (/ 743.0 2.0))))
 (let (($x7044 (not $x12612)))
 (let ((?x2006 (- 50.0)))
 (let ((?x26295 (- 1.0)))
 (let ((?x13512 (* ?x26295 ?x12386)))
 (let ((?x12770 (+ ?x13512 (* (- 3.0) (+ x5 (* 1.0 ?lambda))))))
 (let (($x22065 (<= ?x12770 ?x2006)))
 (let (($x5432 (not (and $x22065 $x7044))))
 (let (($x19538 (and (not (and $x17889 (not (and $x12034 (not (and bool.b7 $x1927)))))) (not (and $x550 $x5184)))))
 (let (($x29367 (not $x22065)))
 (let (($x31337 (and (not (and (not $x7608) (not (and (<= ?x22873 60.0) $x12612)))) (not (and $x7608 (not (and (not (and $x29367 $x19538)) $x5432)))))))
 (let (($x320 (<= ?x6027 610.0)))
 (let (($x12098 (not $x21862)))
 (let (($x149 (and (not (and $x12098 (not (and $x320 $x31337)))) (not (and $x21862 (not $x38018))))))
 (let (($x4723 (<= ?x18119 40.0)))
 (let (($x19524 (and (not (and $x12098 (not (and $x320 (and (<= ?x22873 60.0) $x1781))))) (not (and $x21862 (not (and $x550 $x31425)))))))
 (let (($x28895 (not $x4723)))
 (let ((?x33781 (- 10.0)))
 (let ((?x19470 (+ x5 (* 1.0 ?lambda))))
 (let ((?x16349 (* ?x26295 ?x19470)))
 (let (($x15532 (<= ?x16349 ?x33781)))
 (let (($x10295 (and $x15532 (and (not (and $x28895 (not $x19524))) (not (and $x4723 (not $x149)))))))
 (let ((?x20628 (+ ?x10228 (* (- 2.0) ?x19470))))
 (let (($x321 (<= ?x20628 703.0)))
 (let ((?x14621 (+ ?x18119 (* 1.0 ?x19470))))
 (let (($x27356 (<= ?x14621 10.0)))
 (let (($x9052 (not bool.b7)))
 (let (($x11249 (not (and $x9052 (not (<= (* 1.0 (+ x4 (* 20.0 ?lambda))) 4820.0))))))
 (let (($x4793 (and $x11249 (not (and (<= (* 1.0 (+ x4 (* 20.0 ?lambda))) 4820.0) $x7044)))))
 (let (($x24997 (<= ?x18119 0.0)))
 (let (($x19289 (not (and $x1927 $x7044))))
 (let (($x9262 (and (not (and $x15663 (and (not $x5184) (not (and (not $x10060) $x12612))))) $x19289)))
 (let (($x13456 (and (not (and (not (<= ?x12770 (- 30.0))) (not $x9262))) (not (and (<= ?x12770 (- 30.0)) $x7044)))))
 (let (($x3502 (not (and (not (and (not $x24997) (not $x13456))) (not (and $x24997 (not $x4793)))))))
 (let (($x13496 (<= ?x18119 20.0)))
 (let (($x10809 (and $x17889 (not (and (not (and $x9052 (not $x10060))) (not (and $x10060 $x7044)))))))
 (let (($x21804 (and (not $x10809) (not (and $x550 (not (and $x19289 (not (and $x9052 $x15663)))))))))
 (let (($x12343 (and $x21862 (not (and (not (and (not $x7608) $x7044)) (not (and $x7608 (not $x21804))))))))
 (let (($x1558 (and $x17889 (not (and (not (and bool.b7 $x1927)) (not (and $x15663 $x12612)))))))
 (let (($x39678 (and (not $x1558) (not (and $x550 (not (and (not $x5184) (not (and (not $x10060) $x12612)))))))))
 (let (($x25330 (and (not (and (not $x320) $x7044)) (not (and $x320 (not (and $x5432 (not (and $x29367 $x39678)))))))))
 (let (($x19018 (and (not (and $x28895 $x7044)) (not (and $x4723 (not (and (not (and $x12098 (not $x25330))) (not $x12343))))))))
 (let (($x39637 (and $x15532 (not (and (not (and (not $x13496) (not $x19018))) (not (and $x13496 $x3502)))))))
 (let (($x27380 (<= (+ ?x13512 ?x16349) ?x33781)))
 (let (($x13242 (and (not $x27356) (and $x27380 (and (not (and (not $x15532) $x7044)) (not $x39637))))))
 (let (($x30681 (<= ?x14621 30.0)))
 (let (($x6366 (and $x30681 (not (and (not $x13242) (not (and $x27356 (and bool.b7 $x27380))))))))
 (let (($x19099 (not (and (not (<= (+ ?x18119 (* (/ ?x26295 2.0) ?x19470)) (- 5.0))) $x10295))))
 (let (($x4406 (not (and bool.b7 (<= (+ ?x18119 (* (/ ?x26295 2.0) ?x19470)) (- 5.0))))))
 (let (($x7538 (and (not (and (not (<= (+ ?x18119 ?x16349) 10.0)) (not (and $x4406 $x19099)))) (not $x6366))))
 (let (($x12190 (not $x321)))
 (let (($x6237 (<= ?x20628 1180.0)))
 (let (($x25188 (and bool.b6 (and $x6237 (and (not (and $x12190 $x7538)) (not (and $x321 (not $x10295))))))))
 (let (($x8524 (and (not (and (not $x7608) $x12034)) (not (and $x7608 (not (and $x15663 (not (and $x10060 $x7044)))))))))
 (let (($x22736 (and (not (and $x12098 (not (and $x320 $x1781)))) (not (and $x21862 (not $x8524))))))
 (let (($x5671 (and $x15663 $x12612)))
 (let (($x11282 (not $x5671)))
 (let ((?x9842 (+ ?x18119 (* (/ 1.0 20.0) (+ x4 (* 20.0 ?lambda))))))
 (let (($x10892 (<= ?x9842 261.0)))
 (let (($x9359 (and $x21862 (not (and (not (and (not $x10892) $x7044)) (not (and $x10892 $x11282)))))))
 (let (($x39616 (and (not (and $x12098 (not (and (<= ?x9842 420.0) (and $x320 $x12612))))) (not $x9359))))
 (let (($x35 (<= ?x13512 ?x2006)))
 (let (($x6943 (and (not (and (not $x35) (not (and $x21862 $x5671)))) (not (and $x35 (not $x39616))))))
 (let (($x7954 (and (not (and $x28895 (not (and (<= ?x18119 50.0) $x6943)))) (not (and $x4723 (not $x22736))))))
 (let (($x31422 (not (and $x15532 $x7954))))
 (let ((?x7840 (* (/ ?x26295 2.0) ?x19470)))
 (let ((?x10620 (+ ?x6027 ?x7840)))
 (let (($x876 (<= ?x10620 (/ 733.0 2.0))))
 (let (($x325 (and (not (and (not (<= ?x14621 40.0)) $x31422)) (not (and (<= ?x14621 40.0) $x7044)))))
 (let (($x5812 (and $x321 (not (and (not (and (not $x876) (not $x325))) (not (and $x876 $x31422)))))))
 (let (($x13168 (<= ?x10620 605.0)))
 (let (($x883 (and $x13168 (not (and (not (and $x12190 (not (and $x27380 $x325)))) (not $x5812))))))
 (let (($x18955 (and (not (and (not $x30681) $x31422)) (not (and $x30681 (not (and $x27380 $x325)))))))
 (let (($x4458 (and (not $x13168) (not (and (not (and $x12190 (not $x18955))) (not (and $x321 $x31422)))))))
 (let (($x5505 (not bool.b23)))
 (let (($x14084 (and $x5505 (not (and bool.b6 (and $x6237 (and (not $x4458) (not $x883))))))))
 (let (($x1510 (not bool.b5)))
 (let (($x36 (not (and $x1510 (not (and (not $x14084) (not (and bool.b23 (not $x25188)))))))))
 (let (($x20073 (not (and bool.b5 (not (and (not bool.b6) $x9052))))))
 (let (($x850 (not bool.b22)))
 (let (($x5275 (exists ((?lambdaprime Real) )(! (let (($x850 (not bool.b22)))
 (let (($x17081 (not (<= (* 1.0 (+ x3 (* (- 1.0) ?lambdaprime))) 33.0))))
 (let (($x11769 (and $x17081 (not (<= (* (- 1.0) (+ x4 (* 20.0 ?lambdaprime))) (- 4910.0))))))
 (let (($x16210 (and (not $x11769) (and $x850 (and (not bool.b7) (and (not bool.b5) bool.b6))))))
 (let (($x7898 (and $x17081 (not (<= (* (- 1.0) (+ x4 (* 20.0 ?lambdaprime))) (- 4500.0))))))
 (let (($x21346 (and (not $x7898) (and $x850 (and bool.b7 (and (not bool.b5) (not bool.b6)))))))
 (let (($x526 (and (not (<= (* (- 1.0) (+ x4 (* 20.0 ?lambdaprime))) (- 4100.0))) $x17081)))
 (let (($x102 (and (not $x526) (and $x850 (and (not bool.b7) (and (not bool.b5) (not bool.b6)))))))
 (let ((?x33781 (- 10.0)))
 (let ((?x19470 (+ x5 (* 1.0 ?lambdaprime))))
 (let ((?x26295 (- 1.0)))
 (let ((?x16349 (* ?x26295 ?x19470)))
 (let (($x15532 (<= ?x16349 ?x33781)))
 (let (($x1242 (not $x15532)))
 (and (and (<= 0.0 ?lambdaprime) (<= ?lambdaprime ?lambda)) (not (and $x1242 (and (and (not $x102) (not $x21346)) (not $x16210))))))))))))))))))) :qid k!27))
 ))
 (or (or $x5275 (< ?lambda 0.0)) (not (and $x850 (and $x20073 $x36)))))))))))))))))))))))))))))))))))))))))))))))))))))))))))))))))))))))))))))))))))))))))))))))))))))))))
 )
(check-sat)
